p cnf 1608
-25 -501
-26 -504
-27 -507
-28 -510
-29 -513
-30 -516
-31 -519
-32 -522
-33 -525
-34 -528
-35 -531
-36 -534
-37 -537
-38 -540
-39 -543
-40 -546
-41 -549
-42 -552
-43 -555
-44 -558
-45 -561
-46 -564
-47 -567
-48 -570
-49 571
-50 572
-51 573
-52 574
-53 575
-54 576
-55 577
-56 578
-57 579
-58 580
-59 581
-60 -26
-60 -27
26 27 60
-61 -28
-61 -29
28 29 61
-62 -30
-62 -31
30 31 62
-63 -32
-63 -33
32 33 63
-64 -34
-64 -35
34 35 64
-65 -36
-65 -37
36 37 65
-66 -38
-66 -39
38 39 66
-67 -40
-67 -41
40 41 67
-68 -42
-68 -43
42 43 68
-69 -44
-69 -45
44 45 69
-70 -46
-70 -47
46 47 70
-71 -48
-71 -49
48 49 71
-72 -50
-72 -51
50 51 72
-73 -52
-73 -53
52 53 73
-74 -54
-74 -55
54 55 74
-75 -56
-75 -57
56 57 75
-76 -58
-76 -59
58 59 76
-77 60
-77 61
-60 -61 77
-78 62
-78 63
-62 -63 78
-79 64
-79 65
-64 -65 79
-80 66
-80 67
-66 -67 80
-81 68
-81 69
-68 -69 81
-82 70
-82 71
-70 -71 82
-83 72
-83 73
-72 -73 83
-84 74
-84 75
-74 -75 84
-85 77
-85 78
-77 -78 85
-86 79
-86 80
-79 -80 86
-87 81
-87 82
-81 -82 87
-88 83
-88 84
-83 -84 88
-89 85
-89 86
-85 -86 89
-90 87
-90 88
-87 -88 90
-91 89
-91 90
-89 -90 91
-92 76
-92 91
-76 -91 92
-93 -25
-93 26
25 -26 93
-94 25
-94 -26
-25 26 94
-95 -93
-95 -94
93 94 95
-96 25
-96 26
-25 -26 96
-97 -25
-97 -95
25 95 97
-98 25
-98 95
-25 -95 98
-99 -97
-99 -98
97 98 99
-100 25
-100 -95
-25 95 100
-101 -96
-101 -100
96 100 101
-102 -26
-102 27
26 -27 102
-103 26
-103 -27
-26 27 103
-104 -102
-104 -103
102 103 104
-105 26
-105 27
-26 -27 105
-106 101
-106 -104
-101 104 106
-107 -101
-107 104
101 -104 107
-108 -106
-108 -107
106 107 108
-109 -101
-109 -104
101 104 109
-110 -105
-110 -109
105 109 110
-111 -27
-111 28
27 -28 111
-112 27
-112 -28
-27 28 112
-113 -111
-113 -112
111 112 113
-114 27
-114 28
-27 -28 114
-115 110
-115 -113
-110 113 115
-116 -110
-116 113
110 -113 116
-117 -115
-117 -116
115 116 117
-118 -110
-118 -113
110 113 118
-119 -114
-119 -118
114 118 119
-120 -28
-120 29
28 -29 120
-121 28
-121 -29
-28 29 121
-122 -120
-122 -121
120 121 122
-123 28
-123 29
-28 -29 123
-124 119
-124 -122
-119 122 124
-125 -119
-125 122
119 -122 125
-126 -124
-126 -125
124 125 126
-127 -119
-127 -122
119 122 127
-128 -123
-128 -127
123 127 128
-129 -29
-129 30
29 -30 129
-130 29
-130 -30
-29 30 130
-131 -129
-131 -130
129 130 131
-132 29
-132 30
-29 -30 132
-133 128
-133 -131
-128 131 133
-134 -128
-134 131
128 -131 134
-135 -133
-135 -134
133 134 135
-136 -128
-136 -131
128 131 136
-137 -132
-137 -136
132 136 137
-138 -30
-138 31
30 -31 138
-139 30
-139 -31
-30 31 139
-140 -138
-140 -139
138 139 140
-141 30
-141 31
-30 -31 141
-142 137
-142 -140
-137 140 142
-143 -137
-143 140
137 -140 143
-144 -142
-144 -143
142 143 144
-145 -137
-145 -140
137 140 145
-146 -141
-146 -145
141 145 146
-147 -31
-147 32
31 -32 147
-148 31
-148 -32
-31 32 148
-149 -147
-149 -148
147 148 149
-150 31
-150 32
-31 -32 150
-151 146
-151 -149
-146 149 151
-152 -146
-152 149
146 -149 152
-153 -151
-153 -152
151 152 153
-154 -146
-154 -149
146 149 154
-155 -150
-155 -154
150 154 155
-156 -32
-156 33
32 -33 156
-157 32
-157 -33
-32 33 157
-158 -156
-158 -157
156 157 158
-159 32
-159 33
-32 -33 159
-160 155
-160 -158
-155 158 160
-161 -155
-161 158
155 -158 161
-162 -160
-162 -161
160 161 162
-163 -155
-163 -158
155 158 163
-164 -159
-164 -163
159 163 164
-165 -33
-165 34
33 -34 165
-166 33
-166 -34
-33 34 166
-167 -165
-167 -166
165 166 167
-168 33
-168 34
-33 -34 168
-169 164
-169 -167
-164 167 169
-170 -164
-170 167
164 -167 170
-171 -169
-171 -170
169 170 171
-172 -164
-172 -167
164 167 172
-173 -168
-173 -172
168 172 173
-174 -34
-174 35
34 -35 174
-175 34
-175 -35
-34 35 175
-176 -174
-176 -175
174 175 176
-177 34
-177 35
-34 -35 177
-178 173
-178 -176
-173 176 178
-179 -173
-179 176
173 -176 179
-180 -178
-180 -179
178 179 180
-181 -173
-181 -176
173 176 181
-182 -177
-182 -181
177 181 182
-183 -35
-183 36
35 -36 183
-184 35
-184 -36
-35 36 184
-185 -183
-185 -184
183 184 185
-186 35
-186 36
-35 -36 186
-187 182
-187 -185
-182 185 187
-188 -182
-188 185
182 -185 188
-189 -187
-189 -188
187 188 189
-190 -182
-190 -185
182 185 190
-191 -186
-191 -190
186 190 191
-192 -36
-192 37
36 -37 192
-193 36
-193 -37
-36 37 193
-194 -192
-194 -193
192 193 194
-195 36
-195 37
-36 -37 195
-196 191
-196 -194
-191 194 196
-197 -191
-197 194
191 -194 197
-198 -196
-198 -197
196 197 198
-199 -191
-199 -194
191 194 199
-200 -195
-200 -199
195 199 200
-201 -37
-201 38
37 -38 201
-202 37
-202 -38
-37 38 202
-203 -201
-203 -202
201 202 203
-204 37
-204 38
-37 -38 204
-205 200
-205 -203
-200 203 205
-206 -200
-206 203
200 -203 206
-207 -205
-207 -206
205 206 207
-208 -200
-208 -203
200 203 208
-209 -204
-209 -208
204 208 209
-210 -38
-210 39
38 -39 210
-211 38
-211 -39
-38 39 211
-212 -210
-212 -211
210 211 212
-213 38
-213 39
-38 -39 213
-214 209
-214 -212
-209 212 214
-215 -209
-215 212
209 -212 215
-216 -214
-216 -215
214 215 216
-217 -209
-217 -212
209 212 217
-218 -213
-218 -217
213 217 218
-219 -39
-219 40
39 -40 219
-220 39
-220 -40
-39 40 220
-221 -219
-221 -220
219 220 221
-222 39
-222 40
-39 -40 222
-223 218
-223 -221
-218 221 223
-224 -218
-224 221
218 -221 224
-225 -223
-225 -224
223 224 225
-226 -218
-226 -221
218 221 226
-227 -222
-227 -226
222 226 227
-228 -40
-228 41
40 -41 228
-229 40
-229 -41
-40 41 229
-230 -228
-230 -229
228 229 230
-231 40
-231 41
-40 -41 231
-232 227
-232 -230
-227 230 232
-233 -227
-233 230
227 -230 233
-234 -232
-234 -233
232 233 234
-235 -227
-235 -230
227 230 235
-236 -231
-236 -235
231 235 236
-237 -41
-237 42
41 -42 237
-238 41
-238 -42
-41 42 238
-239 -237
-239 -238
237 238 239
-240 41
-240 42
-41 -42 240
-241 236
-241 -239
-236 239 241
-242 -236
-242 239
236 -239 242
-243 -241
-243 -242
241 242 243
-244 -236
-244 -239
236 239 244
-245 -240
-245 -244
240 244 245
-246 -42
-246 43
42 -43 246
-247 42
-247 -43
-42 43 247
-248 -246
-248 -247
246 247 248
-249 42
-249 43
-42 -43 249
-250 245
-250 -248
-245 248 250
-251 -245
-251 248
245 -248 251
-252 -250
-252 -251
250 251 252
-253 -245
-253 -248
245 248 253
-254 -249
-254 -253
249 253 254
-255 -43
-255 44
43 -44 255
-256 43
-256 -44
-43 44 256
-257 -255
-257 -256
255 256 257
-258 43
-258 44
-43 -44 258
-259 254
-259 -257
-254 257 259
-260 -254
-260 257
254 -257 260
-261 -259
-261 -260
259 260 261
-262 -254
-262 -257
254 257 262
-263 -258
-263 -262
258 262 263
-264 -44
-264 45
44 -45 264
-265 44
-265 -45
-44 45 265
-266 -264
-266 -265
264 265 266
-267 44
-267 45
-44 -45 267
-268 263
-268 -266
-263 266 268
-269 -263
-269 266
263 -266 269
-270 -268
-270 -269
268 269 270
-271 -263
-271 -266
263 266 271
-272 -267
-272 -271
267 271 272
-273 -45
-273 46
45 -46 273
-274 45
-274 -46
-45 46 274
-275 -273
-275 -274
273 274 275
-276 45
-276 46
-45 -46 276
-277 272
-277 -275
-272 275 277
-278 -272
-278 275
272 -275 278
-279 -277
-279 -278
277 278 279
-280 -272
-280 -275
272 275 280
-281 -276
-281 -280
276 280 281
-282 -46
-282 47
46 -47 282
-283 46
-283 -47
-46 47 283
-284 -282
-284 -283
282 283 284
-285 46
-285 47
-46 -47 285
-286 281
-286 -284
-281 284 286
-287 -281
-287 284
281 -284 287
-288 -286
-288 -287
286 287 288
-289 -281
-289 -284
281 284 289
-290 -285
-290 -289
285 289 290
-291 -47
-291 48
47 -48 291
-292 47
-292 -48
-47 48 292
-293 -291
-293 -292
291 292 293
-294 47
-294 48
-47 -48 294
-295 290
-295 -293
-290 293 295
-296 -290
-296 293
290 -293 296
-297 -295
-297 -296
295 296 297
-298 -290
-298 -293
290 293 298
-299 -294
-299 -298
294 298 299
-300 -48
-300 49
48 -49 300
-301 48
-301 -49
-48 49 301
-302 -300
-302 -301
300 301 302
-303 48
-303 49
-48 -49 303
-304 299
-304 -302
-299 302 304
-305 -299
-305 302
299 -302 305
-306 -304
-306 -305
304 305 306
-307 -299
-307 -302
299 302 307
-308 -303
-308 -307
303 307 308
-309 -49
-309 50
49 -50 309
-310 49
-310 -50
-49 50 310
-311 -309
-311 -310
309 310 311
-312 49
-312 50
-49 -50 312
-313 308
-313 -311
-308 311 313
-314 -308
-314 311
308 -311 314
-315 -313
-315 -314
313 314 315
-316 -308
-316 -311
308 311 316
-317 -312
-317 -316
312 316 317
-318 -50
-318 51
50 -51 318
-319 50
-319 -51
-50 51 319
-320 -318
-320 -319
318 319 320
-321 50
-321 51
-50 -51 321
-322 317
-322 -320
-317 320 322
-323 -317
-323 320
317 -320 323
-324 -322
-324 -323
322 323 324
-325 -317
-325 -320
317 320 325
-326 -321
-326 -325
321 325 326
-327 -51
-327 52
51 -52 327
-328 51
-328 -52
-51 52 328
-329 -327
-329 -328
327 328 329
-330 51
-330 52
-51 -52 330
-331 326
-331 -329
-326 329 331
-332 -326
-332 329
326 -329 332
-333 -331
-333 -332
331 332 333
-334 -326
-334 -329
326 329 334
-335 -330
-335 -334
330 334 335
-336 -52
-336 53
52 -53 336
-337 52
-337 -53
-52 53 337
-338 -336
-338 -337
336 337 338
-339 52
-339 53
-52 -53 339
-340 335
-340 -338
-335 338 340
-341 -335
-341 338
335 -338 341
-342 -340
-342 -341
340 341 342
-343 -335
-343 -338
335 338 343
-344 -339
-344 -343
339 343 344
-345 -53
-345 54
53 -54 345
-346 53
-346 -54
-53 54 346
-347 -345
-347 -346
345 346 347
-348 53
-348 54
-53 -54 348
-349 344
-349 -347
-344 347 349
-350 -344
-350 347
344 -347 350
-351 -349
-351 -350
349 350 351
-352 -344
-352 -347
344 347 352
-353 -348
-353 -352
348 352 353
-354 -54
-354 55
54 -55 354
-355 54
-355 -55
-54 55 355
-356 -354
-356 -355
354 355 356
-357 54
-357 55
-54 -55 357
-358 353
-358 -356
-353 356 358
-359 -353
-359 356
353 -356 359
-360 -358
-360 -359
358 359 360
-361 -353
-361 -356
353 356 361
-362 -357
-362 -361
357 361 362
-363 -55
-363 56
55 -56 363
-364 55
-364 -56
-55 56 364
-365 -363
-365 -364
363 364 365
-366 55
-366 56
-55 -56 366
-367 362
-367 -365
-362 365 367
-368 -362
-368 365
362 -365 368
-369 -367
-369 -368
367 368 369
-370 -362
-370 -365
362 365 370
-371 -366
-371 -370
366 370 371
-372 -56
-372 57
56 -57 372
-373 56
-373 -57
-56 57 373
-374 -372
-374 -373
372 373 374
-375 56
-375 57
-56 -57 375
-376 371
-376 -374
-371 374 376
-377 -371
-377 374
371 -374 377
-378 -376
-378 -377
376 377 378
-379 -371
-379 -374
371 374 379
-380 -375
-380 -379
375 379 380
-381 -57
-381 58
57 -58 381
-382 57
-382 -58
-57 58 382
-383 -381
-383 -382
381 382 383
-384 57
-384 58
-57 -58 384
-385 380
-385 -383
-380 383 385
-386 -380
-386 383
380 -383 386
-387 -385
-387 -386
385 386 387
-388 -380
-388 -383
380 383 388
-389 -384
-389 -388
384 388 389
-390 -58
-390 59
58 -59 390
-391 58
-391 -59
-58 59 391
-392 -390
-392 -391
390 391 392
-393 58
-393 59
-58 -59 393
-394 389
-394 -392
-389 392 394
-395 -389
-395 392
389 -392 395
-396 -394
-396 -395
394 395 396
-397 -389
-397 -392
389 392 397
-398 -393
-398 -397
393 397 398
-399 25
-399 -99
-25 99 399
-400 -25
-400 27
25 -27 400
-401 -399
-401 -400
399 400 401
-402 25
-402 -108
-25 108 402
-403 -25
-403 28
25 -28 403
-404 -402
-404 -403
402 403 404
-405 25
-405 -117
-25 117 405
-406 -25
-406 29
25 -29 406
-407 -405
-407 -406
405 406 407
-408 25
-408 -126
-25 126 408
-409 -25
-409 30
25 -30 409
-410 -408
-410 -409
408 409 410
-411 25
-411 -135
-25 135 411
-412 -25
-412 31
25 -31 412
-413 -411
-413 -412
411 412 413
-414 25
-414 -144
-25 144 414
-415 -25
-415 32
25 -32 415
-416 -414
-416 -415
414 415 416
-417 25
-417 -153
-25 153 417
-418 -25
-418 33
25 -33 418
-419 -417
-419 -418
417 418 419
-420 25
-420 -162
-25 162 420
-421 -25
-421 34
25 -34 421
-422 -420
-422 -421
420 421 422
-423 25
-423 -171
-25 171 423
-424 -25
-424 35
25 -35 424
-425 -423
-425 -424
423 424 425
-426 25
-426 -180
-25 180 426
-427 -25
-427 36
25 -36 427
-428 -426
-428 -427
426 427 428
-429 25
-429 -189
-25 189 429
-430 -25
-430 37
25 -37 430
-431 -429
-431 -430
429 430 431
-432 25
-432 -198
-25 198 432
-433 -25
-433 38
25 -38 433
-434 -432
-434 -433
432 433 434
-435 25
-435 -207
-25 207 435
-436 -25
-436 39
25 -39 436
-437 -435
-437 -436
435 436 437
-438 25
-438 -216
-25 216 438
-439 -25
-439 40
25 -40 439
-440 -438
-440 -439
438 439 440
-441 25
-441 -225
-25 225 441
-442 -25
-442 41
25 -41 442
-443 -441
-443 -442
441 442 443
-444 25
-444 -234
-25 234 444
-445 -25
-445 42
25 -42 445
-446 -444
-446 -445
444 445 446
-447 25
-447 -243
-25 243 447
-448 -25
-448 43
25 -43 448
-449 -447
-449 -448
447 448 449
-450 25
-450 -252
-25 252 450
-451 -25
-451 44
25 -44 451
-452 -450
-452 -451
450 451 452
-453 25
-453 -261
-25 261 453
-454 -25
-454 45
25 -45 454
-455 -453
-455 -454
453 454 455
-456 25
-456 -270
-25 270 456
-457 -25
-457 46
25 -46 457
-458 -456
-458 -457
456 457 458
-459 25
-459 -279
-25 279 459
-460 -25
-460 47
25 -47 460
-461 -459
-461 -460
459 460 461
-462 25
-462 -288
-25 288 462
-463 -25
-463 48
25 -48 463
-464 -462
-464 -463
462 463 464
-465 25
-465 -297
-25 297 465
-466 -25
-466 49
25 -49 466
-467 -465
-467 -466
465 466 467
-468 25
-468 -306
-25 306 468
-469 -25
-469 50
25 -50 469
-470 -468
-470 -469
468 469 470
-471 25
-471 -315
-25 315 471
-472 -25
-472 51
25 -51 472
-473 -471
-473 -472
471 472 473
-474 25
-474 -324
-25 324 474
-475 -25
-475 52
25 -52 475
-476 -474
-476 -475
474 475 476
-477 25
-477 -333
-25 333 477
-478 -25
-478 53
25 -53 478
-479 -477
-479 -478
477 478 479
-480 25
-480 -342
-25 342 480
-481 -25
-481 54
25 -54 481
-482 -480
-482 -481
480 481 482
-483 25
-483 -351
-25 351 483
-484 -25
-484 55
25 -55 484
-485 -483
-485 -484
483 484 485
-486 25
-486 -360
-25 360 486
-487 -25
-487 56
25 -56 487
-488 -486
-488 -487
486 487 488
-489 25
-489 -369
-25 369 489
-490 -25
-490 57
25 -57 490
-491 -489
-491 -490
489 490 491
-492 25
-492 -378
-25 378 492
-493 -25
-493 58
25 -58 493
-494 -492
-494 -493
492 493 494
-495 25
-495 -387
-25 387 495
-496 -25
-496 59
25 -59 496
-497 -495
-497 -496
495 496 497
-498 25
-498 -396
-25 396 498
-499 1
-499 92
-1 -92 499
-500 -92
-500 93
92 -93 500
-501 -499
-501 -500
499 500 501
-502 2
-502 92
-2 -92 502
-503 -92
-503 -401
92 401 503
-504 -502
-504 -503
502 503 504
-505 3
-505 92
-3 -92 505
-506 -92
-506 -404
92 404 506
-507 -505
-507 -506
505 506 507
-508 4
-508 92
-4 -92 508
-509 -92
-509 -407
92 407 509
-510 -508
-510 -509
508 509 510
-511 5
-511 92
-5 -92 511
-512 -92
-512 -410
92 410 512
-513 -511
-513 -512
511 512 513
-514 6
-514 92
-6 -92 514
-515 -92
-515 -413
92 413 515
-516 -514
-516 -515
514 515 516
-517 7
-517 92
-7 -92 517
-518 -92
-518 -416
92 416 518
-519 -517
-519 -518
517 518 519
-520 8
-520 92
-8 -92 520
-521 -92
-521 -419
92 419 521
-522 -520
-522 -521
520 521 522
-523 9
-523 92
-9 -92 523
-524 -92
-524 -422
92 422 524
-525 -523
-525 -524
523 524 525
-526 10
-526 92
-10 -92 526
-527 -92
-527 -425
92 425 527
-528 -526
-528 -527
526 527 528
-529 11
-529 92
-11 -92 529
-530 -92
-530 -428
92 428 530
-531 -529
-531 -530
529 530 531
-532 12
-532 92
-12 -92 532
-533 -92
-533 -431
92 431 533
-534 -532
-534 -533
532 533 534
-535 13
-535 92
-13 -92 535
-536 -92
-536 -434
92 434 536
-537 -535
-537 -536
535 536 537
-538 14
-538 92
-14 -92 538
-539 -92
-539 -437
92 437 539
-540 -538
-540 -539
538 539 540
-541 15
-541 92
-15 -92 541
-542 -92
-542 -440
92 440 542
-543 -541
-543 -542
541 542 543
-544 16
-544 92
-16 -92 544
-545 -92
-545 -443
92 443 545
-546 -544
-546 -545
544 545 546
-547 17
-547 92
-17 -92 547
-548 -92
-548 -446
92 446 548
-549 -547
-549 -548
547 548 549
-550 18
-550 92
-18 -92 550
-551 -92
-551 -449
92 449 551
-552 -550
-552 -551
550 551 552
-553 19
-553 92
-19 -92 553
-554 -92
-554 -452
92 452 554
-555 -553
-555 -554
553 554 555
-556 20
-556 92
-20 -92 556
-557 -92
-557 -455
92 455 557
-558 -556
-558 -557
556 557 558
-559 21
-559 92
-21 -92 559
-560 -92
-560 -458
92 458 560
-561 -559
-561 -560
559 560 561
-562 22
-562 92
-22 -92 562
-563 -92
-563 -461
92 461 563
-564 -562
-564 -563
562 563 564
-565 23
-565 92
-23 -92 565
-566 -92
-566 -464
92 464 566
-567 -565
-567 -566
565 566 567
-568 24
-568 92
-24 -92 568
-569 -92
-569 -467
92 467 569
-570 -568
-570 -569
568 569 570
-571 -92
-571 -470
92 470 571
-572 -92
-572 -473
92 473 572
-573 -92
-573 -476
92 476 573
-574 -92
-574 -479
92 479 574
-575 -92
-575 -482
92 482 575
-576 -92
-576 -485
92 485 576
-577 -92
-577 -488
92 488 577
-578 -92
-578 -491
92 491 578
-579 -92
-579 -494
92 494 579
-580 -92
-580 -497
92 497 580
-581 -92
-581 498
92 -498 581
-582 -59
-582 398
59 -398 582
-583 25
-583 -582
-25 582 583
583
